p cnf 879 2340
-1 2 0
1 3 0
-4 5 0
-4 6 0
-7 -8 0
-9 -10 0
-11 -12 0
-13 -14 0
-15 -16 17 0
-15 16 18 0
-5 19 0
-5 20 0
-16 21 0
-21 -22 0
-22 -23 0
-17 -24 25 0
-17 24 26 0
-24 27 0
-27 -28 0
-28 -29 0
-25 -30 18 0
-25 30 26 0
-19 31 0
-19 32 0
-30 -33 0
-33 -34 0
-34 -35 0
-18 36 0
-36 37 0
-36 38 0
-37 39 0
-37 40 0
-39 41 0
-39 42 0
-41 43 0
-41 44 0
-43 45 0
-43 46 0
-31 47 0
-31 48 0
-45 49 0
-45 50 0
-49 51 0
-49 52 0
-51 53 0
-51 54 0
-53 55 0
-53 56 0
-55 57 0
-55 58 0
-57 59 0
-57 60 0
-59 61 0
-59 62 0
-61 63 0
-61 64 0
-63 65 0
-63 66 0
-65 67 0
-65 68 0
-47 69 0
-47 70 0
-67 -71 0
-71 72 0
-72 -73 -74 0
-72 73 74 0
-74 -75 0
-75 -76 0
-68 -77 0
-77 -78 -79 0
-77 78 79 0
-78 -80 -81 0
-78 80 81 0
-81 -82 -83 0
-81 82 83 0
-82 -84 0
-69 85 0
-69 86 0
-83 75 0
-79 74 0
-79 73 0
-66 -87 0
-87 -88 -89 0
-87 88 89 0
-88 -90 -91 0
-88 90 91 0
-91 -92 -93 0
-91 92 93 0
-92 -94 0
-93 82 0
-93 83 0
-89 95 96 0
-95 97 98 0
-85 99 0
-85 100 0
-97 81 0
-97 80 0
-98 81 0
-98 79 0
-96 79 0
-96 80 0
-64 -101 0
-101 -102 -103 0
-101 102 103 0
-102 -104 -105 0
-102 104 105 0
-105 -106 -107 0
-105 106 107 0
-106 -108 0
-107 92 0
-107 93 0
-103 109 110 0
-99 111 0
-99 112 0
-109 113 114 0
-113 91 0
-113 90 0
-114 91 0
-114 89 0
-110 89 0
-110 90 0
-62 -115 0
-115 -116 -117 0
-115 116 117 0
-116 -118 -119 0
-116 118 119 0
-119 -120 -121 0
-119 120 121 0
-120 -122 0
-121 106 0
-121 107 0
-111 123 0
-111 124 0
-117 125 126 0
-125 127 128 0
-127 105 0
-127 104 0
-128 105 0
-128 103 0
-126 103 0
-126 104 0
-60 -129 0
-129 -130 -131 0
-129 130 131 0
-130 -132 -133 0
-130 132 133 0
-133 -134 -135 0
-133 134 135 0
-134 -136 0
-123 137 0
-123 138 0
-135 120 0
-135 121 0
-131 139 140 0
-139 141 142 0
-141 119 0
-141 118 0
-142 119 0
-142 117 0
-140 117 0
-140 118 0
-58 -143 0
-143 -144 -145 0
-143 144 145 0
-144 -146 -147 0
-144 146 147 0
-147 -148 -149 0
-147 148 149 0
-1 150 0
-137 151 0
-137 152 0
-148 -153 0
-149 134 0
-149 135 0
-145 154 155 0
-154 156 157 0
-156 133 0
-156 132 0
-157 133 0
-157 131 0
-155 131 0
-155 132 0
-56 -158 0
-158 -159 -160 0
-158 159 160 0
-159 -161 -162 0
-159 161 162 0
-151 163 0
-151 164 0
-162 -165 -166 0
-162 165 166 0
-165 -167 0
-166 148 0
-166 149 0
-160 168 169 0
-168 170 171 0
-170 147 0
-170 146 0
-171 147 0
-171 145 0
-169 145 0
-169 146 0
-54 -172 0
-172 -173 -174 0
-172 173 174 0
-163 175 0
-163 176 0
-173 -177 -178 0
-173 177 178 0
-178 -179 -180 0
-178 179 180 0
-179 -181 0
-180 165 0
-180 166 0
-174 182 183 0
-182 184 185 0
-184 162 0
-184 161 0
-185 162 0
-185 160 0
-183 160 0
-183 161 0
-52 -186 0
-175 -73 0
-186 -187 -188 0
-186 187 188 0
-187 -189 -190 0
-187 189 190 0
-190 -191 -192 0
-190 191 192 0
-191 -193 0
-192 179 0
-192 180 0
-188 194 195 0
-194 196 197 0
-196 178 0
-196 177 0
-197 178 0
-197 174 0
-195 174 0
-195 177 0
-50 -198 0
-198 -199 -200 0
-198 199 200 0
-199 -201 -202 0
-199 201 202 0
-202 -203 -204 0
-202 203 204 0
-203 -205 0
-204 191 0
-204 192 0
-200 206 207 0
-206 208 209 0
-208 190 0
-208 189 0
-209 190 0
-209 188 0
-207 188 0
-207 189 0
-46 -210 0
-210 -211 -212 0
-210 211 212 0
-211 -213 -214 0
-211 213 214 0
-214 -215 -216 0
-214 215 216 0
-215 -217 0
-216 203 0
-216 204 0
-212 218 219 0
-218 220 221 0
-220 202 0
-220 201 0
-176 -80 0
-221 202 0
-221 200 0
-219 200 0
-219 201 0
-44 -222 0
-222 -223 -224 0
-222 223 224 0
-223 -225 -226 0
-223 225 226 0
-226 -227 -228 0
-226 227 228 0
-227 -8 0
-228 215 0
-228 216 0
-224 229 230 0
-229 231 232 0
-231 214 0
-231 213 0
-232 214 0
-232 212 0
-230 212 0
-230 213 0
-42 -233 0
-233 -234 -235 0
-233 234 235 0
-234 -236 -237 0
-234 236 237 0
-237 -238 -239 0
-237 238 239 0
-238 -10 0
-239 227 0
-239 228 0
-235 240 241 0
-164 -90 0
-240 242 243 0
-242 226 0
-242 225 0
-243 226 0
-243 224 0
-241 224 0
-241 225 0
-40 -244 0
-244 -245 -246 0
-244 245 246 0
-245 -247 -248 0
-245 247 248 0
-248 -249 -250 0
-248 249 250 0
-249 -12 0
-250 238 0
-250 239 0
-246 251 252 0
-251 253 254 0
-253 237 0
-253 236 0
-254 237 0
-254 235 0
-252 235 0
-252 236 0
-38 -255 0
-255 -256 -257 0
-255 256 257 0
-256 -258 -259 0
-256 258 259 0
-259 -260 -261 0
-259 260 261 0
-260 -14 0
-150 -262 0
-152 -104 0
-261 249 0
-261 250 0
-257 263 264 0
-263 265 266 0
-265 248 0
-265 247 0
-266 248 0
-266 246 0
-264 246 0
-264 247 0
-26 -36 267 0
-26 36 268 0
-267 -269 270 0
-267 269 271 0
-269 272 0
-272 -273 0
-273 -274 0
-270 275 271 0
-275 -276 0
-276 -277 0
-277 -278 0
-271 279 280 0
-279 281 0
-281 -282 0
-138 118 0
-282 -283 0
-280 284 285 0
-284 286 0
-286 -287 0
-287 -288 0
-285 -289 290 0
-289 291 0
-291 -292 0
-292 -293 0
-290 294 0
-294 295 0
-294 296 0
-295 297 0
-295 298 0
-297 299 0
-297 300 0
-299 301 0
-299 302 0
-301 303 0
-301 304 0
-303 305 0
-303 306 0
-305 307 0
-305 308 0
-124 -132 0
-307 309 0
-307 310 0
-309 311 0
-309 312 0
-311 313 0
-311 314 0
-313 315 0
-313 316 0
-315 317 0
-315 318 0
-317 319 0
-317 320 0
-319 321 0
-319 322 0
-321 323 0
-321 324 0
-323 -325 0
-325 326 0
-326 -327 -74 0
-326 327 74 0
-324 -328 0
-328 -329 -330 0
-328 329 330 0
-329 -331 -81 0
-329 331 81 0
-330 74 0
-330 327 0
-322 -332 0
-332 -333 -334 0
-332 333 334 0
-333 -335 -91 0
-333 335 91 0
-112 -146 0
-334 336 337 0
-336 338 339 0
-338 81 0
-338 331 0
-339 81 0
-339 330 0
-337 331 0
-337 330 0
-320 -340 0
-340 -341 -342 0
-340 341 342 0
-341 -343 -105 0
-341 343 105 0
-342 344 345 0
-344 346 347 0
-346 91 0
-346 335 0
-347 91 0
-347 334 0
-345 335 0
-345 334 0
-318 -348 0
-348 -349 -350 0
-348 349 350 0
-349 -351 -119 0
-349 351 119 0
-350 352 353 0
-100 -161 0
-352 354 355 0
-354 105 0
-354 343 0
-355 105 0
-355 342 0
-353 343 0
-353 342 0
-316 -356 0
-356 -357 -358 0
-356 357 358 0
-357 -359 -133 0
-357 359 133 0
-358 360 361 0
-360 362 363 0
-362 119 0
-362 351 0
-363 119 0
-363 350 0
-361 351 0
-361 350 0
-314 -364 0
-364 -365 -366 0
-364 365 366 0
-365 -367 -147 0
-365 367 147 0
-366 368 369 0
-368 370 371 0
-370 133 0
-370 359 0
-262 -372 0
-86 -177 0
-371 133 0
-371 358 0
-369 359 0
-369 358 0
-312 -373 0
-373 -374 -375 0
-373 374 375 0
-374 -376 -162 0
-374 376 162 0
-375 377 378 0
-377 379 380 0
-379 147 0
-379 367 0
-380 147 0
-380 366 0
-378 367 0
-378 366 0
-310 -381 0
-381 -382 -383 0
-381 382 383 0
-382 -384 -178 0
-382 384 178 0
-383 385 386 0
-385 387 388 0
-387 162 0
-387 376 0
-388 162 0
-388 375 0
-386 376 0
-386 375 0
-70 -189 0
-308 -389 0
-389 -390 -391 0
-389 390 391 0
-390 -392 -190 0
-390 392 190 0
-391 393 394 0
-393 395 396 0
-395 178 0
-395 384 0
-396 178 0
-396 383 0
-394 384 0
-394 383 0
-306 -397 0
-397 -398 -399 0
-397 398 399 0
-398 -400 -202 0
-398 400 202 0
-399 401 402 0
-401 403 404 0
-403 190 0
-403 392 0
-404 190 0
-404 391 0
-402 392 0
-402 391 0
-304 -405 0
-405 -406 -407 0
-405 406 407 0
-48 -201 0
-406 -408 -214 0
-406 408 214 0
-407 409 410 0
-409 411 412 0
-411 202 0
-411 400 0
-412 202 0
-412 399 0
-410 400 0
-410 399 0
-302 -413 0
-413 -414 -415 0
-413 414 415 0
-414 -416 -226 0
-414 416 226 0
-415 417 418 0
-417 419 420 0
-419 214 0
-419 408 0
-420 214 0
-420 407 0
-418 408 0
-418 407 0
-300 -421 0
-421 -422 -423 0
-421 422 423 0
-422 -424 -237 0
-422 424 237 0
-32 -213 0
-423 425 426 0
-425 427 428 0
-427 226 0
-427 416 0
-428 226 0
-428 415 0
-426 416 0
-426 415 0
-298 -429 0
-429 -430 -431 0
-429 430 431 0
-430 -432 -248 0
-430 432 248 0
-431 433 434 0
-433 435 436 0
-435 237 0
-435 424 0
-436 237 0
-436 423 0
-434 424 0
-434 423 0
-296 -437 0
-437 -438 -439 0
-437 438 439 0
-438 -440 -259 0
-438 440 259 0
-439 441 442 0
-441 443 444 0
-20 -225 0
-443 248 0
-443 432 0
-444 248 0
-444 431 0
-442 432 0
-442 431 0
-268 -269 445 0
-268 269 446 0
-445 -275 0
-445 275 446 0
-446 -279 0
-446 279 447 0
-447 -284 0
-447 284 448 0
-448 -289 290 0
-448 289 0
-3 -449 450 0
-3 449 451 0
-449 452 0
-452 -453 0
-453 -454 0
-450 -455 456 0
-450 455 457 0
-455 458 0
-458 -459 0
-459 -460 0
-456 -461 451 0
-456 461 457 0
-461 -462 0
-6 -236 0
-462 -463 0
-463 -464 0
-451 -465 466 0
-451 465 0
-465 467 0
-465 468 0
-467 469 0
-467 470 0
-469 471 0
-469 472 0
-471 473 0
-471 474 0
-473 475 0
-473 476 0
-475 477 0
-475 478 0
-477 479 0
-477 480 0
-479 481 0
-479 482 0
-481 483 0
-481 484 0
-483 485 0
-483 486 0
-485 487 0
-485 488 0
-487 489 0
-487 490 0
-489 491 0
-489 492 0
-491 493 0
-491 494 0
-493 495 0
-493 496 0
-495 -497 0
-498 -247 0
-497 499 0
-499 -500 -501 0
-499 500 501 0
-501 -502 0
-502 -73 0
-496 -503 0
-503 -504 -505 0
-503 504 505 0
-504 -506 -507 0
-504 506 507 0
-507 -508 -509 0
-507 508 509 0
-508 -80 0
-509 502 0
-505 500 0
-505 501 0
-494 -510 0
-510 -511 -512 0
-510 511 512 0
-511 -513 -514 0
-511 513 514 0
-514 -515 -516 0
-514 515 516 0
-515 -90 0
-516 508 0
-516 509 0
-517 -258 0
-512 518 519 0
-518 520 521 0
-520 506 0
-520 507 0
-521 507 0
-521 505 0
-519 506 0
-519 505 0
-492 -522 0
-522 -523 -524 0
-522 523 524 0
-523 -525 -526 0
-523 525 526 0
-526 -527 -528 0
-526 527 528 0
-527 -104 0
-528 515 0
-528 516 0
-524 529 530 0
-529 531 532 0
-531 513 0
-531 514 0
-532 514 0
-532 512 0
-530 513 0
-530 512 0
-490 -533 0
-533 -534 -535 0
-533 534 535 0
-534 -536 -537 0
-534 536 537 0
-466 -538 539 0
-466 538 15 0
-537 -540 -541 0
-537 540 541 0
-540 -118 0
-541 527 0
-541 528 0
-535 542 543 0
-542 544 545 0
-544 525 0
-544 526 0
-545 526 0
-545 524 0
-543 525 0
-543 524 0
-488 -546 0
-538 547 0
-546 -548 -549 0
-546 548 549 0
-548 -550 -551 0
-548 550 551 0
-551 -552 -553 0
-551 552 553 0
-552 -132 0
-553 540 0
-553 541 0
-549 554 555 0
-554 556 557 0
-556 536 0
-556 537 0
-557 537 0
-557 535 0
-547 -558 0
-555 536 0
-555 535 0
-486 -559 0
-559 -560 -561 0
-559 560 561 0
-560 -562 -563 0
-560 562 563 0
-563 -564 -565 0
-563 564 565 0
-564 -146 0
-565 552 0
-565 553 0
-561 566 567 0
-566 568 569 0
-558 -570 0
-568 550 0
-568 551 0
-569 551 0
-569 549 0
-567 550 0
-567 549 0
-484 -571 0
-571 -572 -573 0
-571 572 573 0
-572 -574 -575 0
-572 574 575 0
-575 -576 -577 0
-575 576 577 0
-576 -161 0
-577 564 0
-577 565 0
-573 578 579 0
-578 580 581 0
-580 562 0
-580 563 0
-581 563 0
-581 561 0
-579 562 0
-579 561 0
-482 -582 0
-582 -583 -584 0
-582 583 584 0
-583 -585 -586 0
-583 585 586 0
-586 -587 -588 0
-586 587 588 0
-539 589 0
-587 -177 0
-588 576 0
-588 577 0
-584 590 591 0
-590 592 593 0
-592 574 0
-592 575 0
-593 575 0
-593 573 0
-591 574 0
-591 573 0
-480 -594 0
-594 -595 -596 0
-594 595 596 0
-595 -597 -598 0
-595 597 598 0
-589 13 0
-589 599 0
-598 -600 -601 0
-598 600 601 0
-600 -189 0
-601 587 0
-601 588 0
-596 602 603 0
-602 604 605 0
-604 585 0
-604 586 0
-605 586 0
-605 584 0
-603 585 0
-603 584 0
-478 -606 0
-599 11 0
-599 607 0
-606 -608 -609 0
-606 608 609 0
-608 -610 -611 0
-608 610 611 0
-611 -612 -613 0
-611 612 613 0
-612 -201 0
-613 600 0
-613 601 0
-609 614 615 0
-614 616 617 0
-616 597 0
-616 598 0
-617 598 0
-617 596 0
-607 9 0
-607 618 0
-615 597 0
-615 596 0
-476 -619 0
-619 -620 -621 0
-619 620 621 0
-620 -622 -623 0
-620 622 623 0
-623 -624 -625 0
-623 624 625 0
-624 -213 0
-625 612 0
-625 613 0
-621 626 627 0
-626 628 629 0
-618 7 0
-618 630 0
-628 610 0
-628 611 0
-629 611 0
-629 609 0
-627 610 0
-627 609 0
-474 -631 0
-631 -632 -633 0
-631 632 633 0
-632 -634 -635 0
-632 634 635 0
-635 -636 -637 0
-635 636 637 0
-636 -225 0
-637 624 0
-637 625 0
-630 638 0
-630 639 0
-633 640 641 0
-640 642 643 0
-642 622 0
-642 623 0
-643 623 0
-643 621 0
-641 622 0
-641 621 0
-472 -644 0
-644 -645 -646 0
-644 645 646 0
-645 -647 -648 0
-645 647 648 0
-648 -649 -650 0
-648 649 650 0
-638 651 0
-638 652 0
-649 -236 0
-650 636 0
-650 637 0
-646 653 654 0
-653 655 656 0
-655 634 0
-655 635 0
-656 635 0
-656 633 0
-654 634 0
-654 633 0
-470 -657 0
-657 -658 -659 0
-657 658 659 0
-658 -660 -661 0
-658 660 661 0
-651 662 0
-651 663 0
-661 -664 -665 0
-661 664 665 0
-664 -247 0
-665 649 0
-665 650 0
-659 666 667 0
-666 668 669 0
-668 647 0
-668 648 0
-669 648 0
-669 646 0
-667 647 0
-667 646 0
-468 -670 0
-662 671 0
-662 672 0
-670 -673 -674 0
-670 673 674 0
-673 -675 -676 0
-673 675 676 0
-676 -677 -678 0
-676 677 678 0
-677 -258 0
-678 664 0
-678 665 0
-674 679 680 0
-679 681 682 0
-681 660 0
-681 661 0
-682 661 0
-682 659 0
-2 -683 466 0
-2 683 0
-671 684 0
-671 685 0
-680 660 0
-680 659 0
-457 -465 686 0
-457 465 687 0
-686 -688 689 0
-686 688 690 0
-688 691 0
-691 -692 0
-692 -693 0
-689 -694 466 0
-689 694 690 0
-694 -695 0
-695 -696 0
-684 697 0
-684 698 0
-696 -699 0
-690 -700 466 0
-690 700 701 0
-700 702 0
-702 -703 0
-703 -704 0
-701 -705 466 0
-701 705 706 0
-705 707 0
-707 -708 0
-697 709 0
-697 710 0
-708 -711 0
-706 -712 713 0
-706 712 466 0
-712 714 0
-714 -715 0
-715 -716 0
-713 -717 466 0
-713 717 0
-717 718 0
-717 719 0
-718 720 0
-718 721 0
-709 722 0
-709 723 0
-720 724 0
-720 725 0
-724 726 0
-724 727 0
-726 728 0
-726 729 0
-728 730 0
-728 731 0
-730 732 0
-730 733 0
-732 734 0
-732 735 0
-734 736 0
-734 737 0
-736 738 0
-736 739 0
-738 740 0
-738 741 0
-740 742 0
-740 743 0
-722 744 0
-722 745 0
-742 746 0
-742 747 0
-746 748 0
-746 749 0
-748 750 0
-748 751 0
-750 -752 0
-752 753 0
-753 -754 -501 0
-753 754 501 0
-751 -755 0
-755 -756 -757 0
-755 756 757 0
-756 -758 -507 0
-756 758 507 0
-744 759 0
-744 760 0
-757 501 0
-757 754 0
-749 -761 0
-761 -762 -763 0
-761 762 763 0
-762 -764 -514 0
-762 764 514 0
-763 765 766 0
-765 767 768 0
-767 507 0
-767 758 0
-768 507 0
-768 757 0
-759 769 0
-759 770 0
-766 758 0
-766 757 0
-747 -771 0
-771 -772 -773 0
-771 772 773 0
-772 -774 -526 0
-772 774 526 0
-773 775 776 0
-775 777 778 0
-777 514 0
-777 764 0
-778 514 0
-778 763 0
-776 764 0
-776 763 0
-769 -76 0
-743 -779 0
-779 -780 -781 0
-779 780 781 0
-780 -782 -537 0
-780 782 537 0
-781 783 784 0
-783 785 786 0
-785 526 0
-785 774 0
-786 526 0
-786 773 0
-784 774 0
-784 773 0
-741 -787 0
-787 -788 -789 0
-787 788 789 0
-788 -790 -551 0
-788 790 551 0
-789 791 792 0
-791 793 794 0
-793 537 0
-793 782 0
-794 537 0
-794 781 0
-792 782 0
-792 781 0
-739 -795 0
-795 -796 -797 0
-795 796 797 0
-770 -84 0
-796 -798 -563 0
-796 798 563 0
-797 799 800 0
-799 801 802 0
-801 551 0
-801 790 0
-802 551 0
-802 789 0
-800 790 0
-800 789 0
-737 -803 0
-803 -804 -805 0
-803 804 805 0
-804 -806 -575 0
-804 806 575 0
-683 517 0
-683 807 0
-805 808 809 0
-808 810 811 0
-810 563 0
-810 798 0
-811 563 0
-811 797 0
-809 798 0
-809 797 0
-735 -812 0
-812 -813 -814 0
-812 813 814 0
-813 -815 -586 0
-813 815 586 0
-760 -94 0
-814 816 817 0
-816 818 819 0
-818 575 0
-818 806 0
-819 575 0
-819 805 0
-817 806 0
-817 805 0
-733 -820 0
-820 -821 -822 0
-820 821 822 0
-821 -823 -598 0
-821 823 598 0
-822 824 825 0
-824 826 827 0
-826 586 0
-826 815 0
-827 586 0
-827 814 0
-825 815 0
-825 814 0
-731 -828 0
-828 -829 -830 0
-828 829 830 0
-829 -831 -611 0
-829 831 611 0
-830 832 833 0
-832 834 835 0
-745 -108 0
-834 598 0
-834 823 0
-835 598 0
-835 822 0
-833 823 0
-833 822 0
-729 -836 0
-836 -837 -838 0
-836 837 838 0
-837 -839 -623 0
-837 839 623 0
-838 840 841 0
-840 842 843 0
-842 611 0
-842 831 0
-843 611 0
-843 830 0
-841 831 0
-841 830 0
-727 -844 0
-844 -845 -846 0
-844 845 846 0
-845 -847 -635 0
-845 847 635 0
-846 848 849 0
-848 850 851 0
-850 623 0
-850 839 0
-851 623 0
-851 838 0
-723 122 0
-849 839 0
-849 838 0
-725 -852 0
-852 -853 -854 0
-852 853 854 0
-853 -855 -648 0
-853 855 648 0
-854 856 857 0
-856 858 859 0
-858 635 0
-858 847 0
-859 635 0
-859 846 0
-857 847 0
-857 846 0
-721 -860 0
-860 -861 -862 0
-860 861 862 0
-861 -863 -661 0
-861 863 661 0
-862 864 865 0
-864 866 867 0
-866 648 0
-866 855 0
-867 648 0
-867 854 0
-865 855 0
-865 854 0
-719 -868 0
-710 -136 0
-868 -869 -870 0
-868 869 870 0
-869 -871 -676 0
-869 871 676 0
-870 872 873 0
-872 874 875 0
-874 661 0
-874 863 0
-875 661 0
-875 862 0
-873 863 0
-873 862 0
-687 -688 876 0
-687 688 877 0
-876 -694 0
-876 694 877 0
-877 -700 0
-877 700 878 0
-878 -705 0
-878 705 879 0
-879 -712 713 0
-879 712 0
-698 -153 0
-807 4 0
-807 498 0
-685 -167 0
-672 -181 0
-663 -193 0
-652 -205 0
-639 -217 0
4 -5 -6 0
7 8 0
9 10 0
11 12 0
13 14 0
15 -16 -17 0
15 -17 -18 0
15 16 -18 0
5 -19 -20 0
16 -21 0
21 22 0
22 23 0
17 -24 -25 0
17 -25 -26 0
17 24 -26 0
24 -27 0
27 28 0
28 29 0
25 -30 -18 0
25 -18 -26 0
25 30 -26 0
19 -31 -32 0
30 33 0
33 34 0
34 35 0
18 -36 0
36 -37 -38 0
37 -39 -40 0
39 -41 -42 0
41 -43 -44 0
43 -45 -46 0
31 -47 -48 0
45 -49 -50 0
49 -51 -52 0
51 -53 -54 0
53 -55 -56 0
55 -57 -58 0
57 -59 -60 0
59 -61 -62 0
61 -63 -64 0
63 -65 -66 0
65 -67 -68 0
47 -69 -70 0
67 71 0
71 -72 0
72 -74 73 0
72 -73 74 0
74 75 0
75 76 0
68 77 0
77 -78 79 0
77 -79 78 0
78 -81 80 0
78 -80 81 0
81 -82 83 0
81 -83 82 0
82 84 0
69 -85 -86 0
83 -75 0
79 -73 -74 0
66 87 0
87 -88 89 0
87 -89 88 0
88 -91 90 0
88 -90 91 0
91 -92 93 0
91 -93 92 0
92 94 0
93 -82 -83 0
89 -95 0
89 -96 0
95 -97 0
95 -98 0
85 -99 -100 0
97 -80 -81 0
98 -81 -79 0
96 -80 -79 0
64 101 0
101 -102 103 0
101 -103 102 0
102 -105 104 0
102 -104 105 0
105 -106 107 0
105 -107 106 0
106 108 0
107 -92 -93 0
103 -109 0
103 -110 0
99 -111 -112 0
109 -113 0
109 -114 0
113 -90 -91 0
114 -91 -89 0
110 -90 -89 0
62 115 0
115 -116 117 0
115 -117 116 0
116 -119 118 0
116 -118 119 0
119 -120 121 0
119 -121 120 0
120 122 0
121 -106 -107 0
111 -123 -124 0
117 -125 0
117 -126 0
125 -127 0
125 -128 0
127 -104 -105 0
128 -105 -103 0
126 -104 -103 0
60 129 0
129 -130 131 0
129 -131 130 0
130 -133 132 0
130 -132 133 0
133 -134 135 0
133 -135 134 0
134 136 0
123 -137 -138 0
135 -120 -121 0
131 -139 0
131 -140 0
139 -141 0
139 -142 0
141 -118 -119 0
142 -119 -117 0
140 -118 -117 0
58 143 0
143 -144 145 0
143 -145 144 0
144 -147 146 0
144 -146 147 0
147 -148 149 0
147 -149 148 0
1 -150 0
137 -151 -152 0
148 153 0
149 -134 -135 0
145 -154 0
145 -155 0
154 -156 0
154 -157 0
156 -132 -133 0
157 -133 -131 0
155 -132 -131 0
56 158 0
158 -159 160 0
158 -160 159 0
159 -162 161 0
159 -161 162 0
151 -163 -164 0
162 -165 166 0
162 -166 165 0
165 167 0
166 -148 -149 0
160 -168 0
160 -169 0
168 -170 0
168 -171 0
170 -146 -147 0
171 -147 -145 0
169 -146 -145 0
54 172 0
172 -173 174 0
172 -174 173 0
163 -175 -176 0
173 -178 177 0
173 -177 178 0
178 -179 180 0
178 -180 179 0
179 181 0
180 -165 -166 0
174 -182 0
174 -183 0
182 -184 0
182 -185 0
184 -161 -162 0
185 -162 -160 0
183 -161 -160 0
52 186 0
175 73 0
186 -187 188 0
186 -188 187 0
187 -190 189 0
187 -189 190 0
190 -191 192 0
190 -192 191 0
191 193 0
192 -179 -180 0
188 -194 0
188 -195 0
194 -196 0
194 -197 0
196 -177 -178 0
197 -178 -174 0
195 -177 -174 0
50 198 0
198 -199 200 0
198 -200 199 0
199 -202 201 0
199 -201 202 0
202 -203 204 0
202 -204 203 0
203 205 0
204 -191 -192 0
200 -206 0
200 -207 0
206 -208 0
206 -209 0
208 -189 -190 0
209 -190 -188 0
207 -189 -188 0
46 210 0
210 -211 212 0
210 -212 211 0
211 -214 213 0
211 -213 214 0
214 -215 216 0
214 -216 215 0
215 217 0
216 -203 -204 0
212 -218 0
212 -219 0
218 -220 0
218 -221 0
220 -201 -202 0
176 80 0
221 -202 -200 0
219 -201 -200 0
44 222 0
222 -223 224 0
222 -224 223 0
223 -226 225 0
223 -225 226 0
226 -227 228 0
226 -228 227 0
227 8 0
228 -215 -216 0
224 -229 0
224 -230 0
229 -231 0
229 -232 0
231 -213 -214 0
232 -214 -212 0
230 -213 -212 0
42 233 0
233 -234 235 0
233 -235 234 0
234 -237 236 0
234 -236 237 0
237 -238 239 0
237 -239 238 0
238 10 0
239 -227 -228 0
235 -240 0
235 -241 0
164 90 0
240 -242 0
240 -243 0
242 -225 -226 0
243 -226 -224 0
241 -225 -224 0
40 244 0
244 -245 246 0
244 -246 245 0
245 -248 247 0
245 -247 248 0
248 -249 250 0
248 -250 249 0
249 12 0
250 -238 -239 0
246 -251 0
246 -252 0
251 -253 0
251 -254 0
253 -236 -237 0
254 -237 -235 0
252 -236 -235 0
38 255 0
255 -256 257 0
255 -257 256 0
256 -259 258 0
256 -258 259 0
259 -260 261 0
259 -261 260 0
260 14 0
150 262 0
152 104 0
261 -249 -250 0
257 -263 0
257 -264 0
263 -265 0
263 -266 0
265 -247 -248 0
266 -248 -246 0
264 -247 -246 0
26 -36 -267 0
26 -267 -268 0
26 36 -268 0
267 -269 -270 0
267 -270 -271 0
267 269 -271 0
269 -272 0
272 273 0
273 274 0
270 -275 0
270 -271 0
275 276 0
276 277 0
277 278 0
271 -279 0
271 -280 0
279 -281 0
281 282 0
138 -118 0
282 283 0
280 -284 0
280 -285 0
284 -286 0
286 287 0
287 288 0
285 -290 0
285 289 0
289 -291 0
291 292 0
292 293 0
290 -294 0
294 -295 -296 0
295 -297 -298 0
297 -299 -300 0
299 -301 -302 0
301 -303 -304 0
303 -305 -306 0
305 -307 -308 0
124 132 0
307 -309 -310 0
309 -311 -312 0
311 -313 -314 0
313 -315 -316 0
315 -317 -318 0
317 -319 -320 0
319 -321 -322 0
321 -323 -324 0
323 325 0
325 -326 0
326 -74 327 0
326 -327 74 0
324 328 0
328 -329 330 0
328 -330 329 0
329 -81 331 0
329 -331 81 0
330 -327 -74 0
322 332 0
332 -333 334 0
332 -334 333 0
333 -91 335 0
333 -335 91 0
112 146 0
334 -336 0
334 -337 0
336 -338 0
336 -339 0
338 -331 -81 0
339 -81 -330 0
337 -331 -330 0
320 340 0
340 -341 342 0
340 -342 341 0
341 -105 343 0
341 -343 105 0
342 -344 0
342 -345 0
344 -346 0
344 -347 0
346 -335 -91 0
347 -91 -334 0
345 -335 -334 0
318 348 0
348 -349 350 0
348 -350 349 0
349 -119 351 0
349 -351 119 0
350 -352 0
350 -353 0
100 161 0
352 -354 0
352 -355 0
354 -343 -105 0
355 -105 -342 0
353 -343 -342 0
316 356 0
356 -357 358 0
356 -358 357 0
357 -133 359 0
357 -359 133 0
358 -360 0
358 -361 0
360 -362 0
360 -363 0
362 -351 -119 0
363 -119 -350 0
361 -351 -350 0
314 364 0
364 -365 366 0
364 -366 365 0
365 -147 367 0
365 -367 147 0
366 -368 0
366 -369 0
368 -370 0
368 -371 0
370 -359 -133 0
262 372 0
86 177 0
371 -133 -358 0
369 -359 -358 0
312 373 0
373 -374 375 0
373 -375 374 0
374 -162 376 0
374 -376 162 0
375 -377 0
375 -378 0
377 -379 0
377 -380 0
379 -367 -147 0
380 -147 -366 0
378 -367 -366 0
310 381 0
381 -382 383 0
381 -383 382 0
382 -178 384 0
382 -384 178 0
383 -385 0
383 -386 0
385 -387 0
385 -388 0
387 -376 -162 0
388 -162 -375 0
386 -376 -375 0
70 189 0
308 389 0
389 -390 391 0
389 -391 390 0
390 -190 392 0
390 -392 190 0
391 -393 0
391 -394 0
393 -395 0
393 -396 0
395 -384 -178 0
396 -178 -383 0
394 -384 -383 0
306 397 0
397 -398 399 0
397 -399 398 0
398 -202 400 0
398 -400 202 0
399 -401 0
399 -402 0
401 -403 0
401 -404 0
403 -392 -190 0
404 -190 -391 0
402 -392 -391 0
304 405 0
405 -406 407 0
405 -407 406 0
48 201 0
406 -214 408 0
406 -408 214 0
407 -409 0
407 -410 0
409 -411 0
409 -412 0
411 -400 -202 0
412 -202 -399 0
410 -400 -399 0
302 413 0
413 -414 415 0
413 -415 414 0
414 -226 416 0
414 -416 226 0
415 -417 0
415 -418 0
417 -419 0
417 -420 0
419 -408 -214 0
420 -214 -407 0
418 -408 -407 0
300 421 0
421 -422 423 0
421 -423 422 0
422 -237 424 0
422 -424 237 0
32 213 0
423 -425 0
423 -426 0
425 -427 0
425 -428 0
427 -416 -226 0
428 -226 -415 0
426 -416 -415 0
298 429 0
429 -430 431 0
429 -431 430 0
430 -248 432 0
430 -432 248 0
431 -433 0
431 -434 0
433 -435 0
433 -436 0
435 -424 -237 0
436 -237 -423 0
434 -424 -423 0
296 437 0
437 -438 439 0
437 -439 438 0
438 -259 440 0
438 -440 259 0
439 -441 0
439 -442 0
441 -443 0
441 -444 0
20 225 0
443 -432 -248 0
444 -248 -431 0
442 -432 -431 0
268 -269 -445 0
268 -445 -446 0
268 269 -446 0
445 275 -446 0
446 279 -447 0
447 284 -448 0
448 -289 -290 0
3 -449 -450 0
3 -450 -451 0
3 449 -451 0
449 -452 0
452 453 0
453 454 0
450 -455 -456 0
450 -456 -457 0
450 455 -457 0
455 -458 0
458 459 0
459 460 0
456 -461 -451 0
456 -451 -457 0
456 461 -457 0
461 462 0
6 236 0
462 463 0
463 464 0
451 -465 -466 0
465 -467 -468 0
467 -469 -470 0
469 -471 -472 0
471 -473 -474 0
473 -475 -476 0
475 -477 -478 0
477 -479 -480 0
479 -481 -482 0
481 -483 -484 0
483 -485 -486 0
485 -487 -488 0
487 -489 -490 0
489 -491 -492 0
491 -493 -494 0
493 -495 -496 0
495 497 0
498 247 0
497 -499 0
499 -500 501 0
499 -501 500 0
501 502 0
502 73 0
496 503 0
503 -504 505 0
503 -505 504 0
504 -506 507 0
504 -507 506 0
507 -508 509 0
507 -509 508 0
508 80 0
509 -502 0
505 -500 -501 0
494 510 0
510 -511 512 0
510 -512 511 0
511 -513 514 0
511 -514 513 0
514 -515 516 0
514 -516 515 0
515 90 0
516 -508 -509 0
517 258 0
512 -518 0
512 -519 0
518 -520 0
518 -521 0
520 -506 -507 0
521 -507 -505 0
519 -506 -505 0
492 522 0
522 -523 524 0
522 -524 523 0
523 -525 526 0
523 -526 525 0
526 -527 528 0
526 -528 527 0
527 104 0
528 -515 -516 0
524 -529 0
524 -530 0
529 -531 0
529 -532 0
531 -513 -514 0
532 -514 -512 0
530 -513 -512 0
490 533 0
533 -534 535 0
533 -535 534 0
534 -536 537 0
534 -537 536 0
466 -538 -539 0
466 -539 -15 0
466 538 -15 0
537 -540 541 0
537 -541 540 0
540 118 0
541 -527 -528 0
535 -542 0
535 -543 0
542 -544 0
542 -545 0
544 -525 -526 0
545 -526 -524 0
543 -525 -524 0
488 546 0
538 -547 0
546 -548 549 0
546 -549 548 0
548 -550 551 0
548 -551 550 0
551 -552 553 0
551 -553 552 0
552 132 0
553 -540 -541 0
549 -554 0
549 -555 0
554 -556 0
554 -557 0
556 -536 -537 0
557 -537 -535 0
547 558 0
555 -536 -535 0
486 559 0
559 -560 561 0
559 -561 560 0
560 -562 563 0
560 -563 562 0
563 -564 565 0
563 -565 564 0
564 146 0
565 -552 -553 0
561 -566 0
561 -567 0
566 -568 0
566 -569 0
558 570 0
568 -550 -551 0
569 -551 -549 0
567 -550 -549 0
484 571 0
571 -572 573 0
571 -573 572 0
572 -574 575 0
572 -575 574 0
575 -576 577 0
575 -577 576 0
576 161 0
577 -564 -565 0
573 -578 0
573 -579 0
578 -580 0
578 -581 0
580 -562 -563 0
581 -563 -561 0
579 -562 -561 0
482 582 0
582 -583 584 0
582 -584 583 0
583 -585 586 0
583 -586 585 0
586 -587 588 0
586 -588 587 0
539 -589 0
587 177 0
588 -576 -577 0
584 -590 0
584 -591 0
590 -592 0
590 -593 0
592 -574 -575 0
593 -575 -573 0
591 -574 -573 0
480 594 0
594 -595 596 0
594 -596 595 0
595 -597 598 0
595 -598 597 0
589 -599 -13 0
598 -600 601 0
598 -601 600 0
600 189 0
601 -587 -588 0
596 -602 0
596 -603 0
602 -604 0
602 -605 0
604 -585 -586 0
605 -586 -584 0
603 -585 -584 0
478 606 0
599 -607 -11 0
606 -608 609 0
606 -609 608 0
608 -610 611 0
608 -611 610 0
611 -612 613 0
611 -613 612 0
612 201 0
613 -600 -601 0
609 -614 0
609 -615 0
614 -616 0
614 -617 0
616 -597 -598 0
617 -598 -596 0
607 -618 -9 0
615 -597 -596 0
476 619 0
619 -620 621 0
619 -621 620 0
620 -622 623 0
620 -623 622 0
623 -624 625 0
623 -625 624 0
624 213 0
625 -612 -613 0
621 -626 0
621 -627 0
626 -628 0
626 -629 0
618 -630 -7 0
628 -610 -611 0
629 -611 -609 0
627 -610 -609 0
474 631 0
631 -632 633 0
631 -633 632 0
632 -634 635 0
632 -635 634 0
635 -636 637 0
635 -637 636 0
636 225 0
637 -624 -625 0
630 -638 -639 0
633 -640 0
633 -641 0
640 -642 0
640 -643 0
642 -622 -623 0
643 -623 -621 0
641 -622 -621 0
472 644 0
644 -645 646 0
644 -646 645 0
645 -647 648 0
645 -648 647 0
648 -649 650 0
648 -650 649 0
638 -651 -652 0
649 236 0
650 -636 -637 0
646 -653 0
646 -654 0
653 -655 0
653 -656 0
655 -634 -635 0
656 -635 -633 0
654 -634 -633 0
470 657 0
657 -658 659 0
657 -659 658 0
658 -660 661 0
658 -661 660 0
651 -662 -663 0
661 -664 665 0
661 -665 664 0
664 247 0
665 -649 -650 0
659 -666 0
659 -667 0
666 -668 0
666 -669 0
668 -647 -648 0
669 -648 -646 0
667 -647 -646 0
468 670 0
662 -671 -672 0
670 -673 674 0
670 -674 673 0
673 -675 676 0
673 -676 675 0
676 -677 678 0
676 -678 677 0
677 258 0
678 -664 -665 0
674 -679 0
674 -680 0
679 -681 0
679 -682 0
681 -660 -661 0
682 -661 -659 0
2 -683 -466 0
671 -684 -685 0
680 -660 -659 0
457 -465 -686 0
457 -686 -687 0
457 465 -687 0
686 -688 -689 0
686 -689 -690 0
686 688 -690 0
688 -691 0
691 692 0
692 693 0
689 -466 -690 0
689 -694 -466 0
689 694 -690 0
694 695 0
695 696 0
684 -697 -698 0
696 699 0
690 -466 -701 0
690 -700 -466 0
690 700 -701 0
700 -702 0
702 703 0
703 704 0
701 -466 -706 0
701 -705 -466 0
701 705 -706 0
705 -707 0
707 708 0
697 -709 -710 0
708 711 0
706 -712 -713 0
706 -713 -466 0
706 712 -466 0
712 -714 0
714 715 0
715 716 0
713 -717 -466 0
717 -718 -719 0
718 -720 -721 0
709 -722 -723 0
720 -724 -725 0
724 -726 -727 0
726 -728 -729 0
728 -730 -731 0
730 -732 -733 0
732 -734 -735 0
734 -736 -737 0
736 -738 -739 0
738 -740 -741 0
740 -742 -743 0
722 -744 -745 0
742 -746 -747 0
746 -748 -749 0
748 -750 -751 0
750 752 0
752 -753 0
753 -501 754 0
753 -754 501 0
751 755 0
755 -756 757 0
755 -757 756 0
756 -507 758 0
756 -758 507 0
744 -759 -760 0
757 -754 -501 0
749 761 0
761 -762 763 0
761 -763 762 0
762 -514 764 0
762 -764 514 0
763 -765 0
763 -766 0
765 -767 0
765 -768 0
767 -758 -507 0
768 -507 -757 0
759 -769 -770 0
766 -758 -757 0
747 771 0
771 -772 773 0
771 -773 772 0
772 -526 774 0
772 -774 526 0
773 -775 0
773 -776 0
775 -777 0
775 -778 0
777 -764 -514 0
778 -514 -763 0
776 -764 -763 0
769 76 0
743 779 0
779 -780 781 0
779 -781 780 0
780 -537 782 0
780 -782 537 0
781 -783 0
781 -784 0
783 -785 0
783 -786 0
785 -774 -526 0
786 -526 -773 0
784 -774 -773 0
741 787 0
787 -788 789 0
787 -789 788 0
788 -551 790 0
788 -790 551 0
789 -791 0
789 -792 0
791 -793 0
791 -794 0
793 -782 -537 0
794 -537 -781 0
792 -782 -781 0
739 795 0
795 -796 797 0
795 -797 796 0
770 84 0
796 -563 798 0
796 -798 563 0
797 -799 0
797 -800 0
799 -801 0
799 -802 0
801 -790 -551 0
802 -551 -789 0
800 -790 -789 0
737 803 0
803 -804 805 0
803 -805 804 0
804 -575 806 0
804 -806 575 0
683 -807 -517 0
805 -808 0
805 -809 0
808 -810 0
808 -811 0
810 -798 -563 0
811 -563 -797 0
809 -798 -797 0
735 812 0
812 -813 814 0
812 -814 813 0
813 -586 815 0
813 -815 586 0
760 94 0
814 -816 0
814 -817 0
816 -818 0
816 -819 0
818 -806 -575 0
819 -575 -805 0
817 -806 -805 0
733 820 0
820 -821 822 0
820 -822 821 0
821 -598 823 0
821 -823 598 0
822 -824 0
822 -825 0
824 -826 0
824 -827 0
826 -815 -586 0
827 -586 -814 0
825 -815 -814 0
731 828 0
828 -829 830 0
828 -830 829 0
829 -611 831 0
829 -831 611 0
830 -832 0
830 -833 0
832 -834 0
832 -835 0
745 108 0
834 -823 -598 0
835 -598 -822 0
833 -823 -822 0
729 836 0
836 -837 838 0
836 -838 837 0
837 -623 839 0
837 -839 623 0
838 -840 0
838 -841 0
840 -842 0
840 -843 0
842 -831 -611 0
843 -611 -830 0
841 -831 -830 0
727 844 0
844 -845 846 0
844 -846 845 0
845 -635 847 0
845 -847 635 0
846 -848 0
846 -849 0
848 -850 0
848 -851 0
850 -839 -623 0
851 -623 -838 0
723 -122 0
849 -839 -838 0
725 852 0
852 -853 854 0
852 -854 853 0
853 -648 855 0
853 -855 648 0
854 -856 0
854 -857 0
856 -858 0
856 -859 0
858 -847 -635 0
859 -635 -846 0
857 -847 -846 0
721 860 0
860 -861 862 0
860 -862 861 0
861 -661 863 0
861 -863 661 0
862 -864 0
862 -865 0
864 -866 0
864 -867 0
866 -855 -648 0
867 -648 -854 0
865 -855 -854 0
719 868 0
710 136 0
868 -869 870 0
868 -870 869 0
869 -676 871 0
869 -871 676 0
870 -872 0
870 -873 0
872 -874 0
872 -875 0
874 -863 -661 0
875 -661 -862 0
873 -863 -862 0
687 -688 -876 0
687 -876 -877 0
687 688 -877 0
876 694 -877 0
877 700 -878 0
878 705 -879 0
879 -712 -713 0
698 153 0
807 -4 -498 0
685 167 0
672 181 0
663 193 0
652 205 0
639 217 0